NAME : d2103.192271.tour
COMMENT : Cost = 10406_192271
COMMENT : Found by LKH [Keld Helsgaun] Thu Nov 16 17:31:00 2017
TYPE : TOUR
DIMENSION : 2122
TOUR_SECTION
1
2
2122
718
712
660
614
561
562
516
468
425
382
339
340
299
300
254
164
1796
1806
1807
1808
1809
1810
1811
1812
1813
1814
1815
1816
1817
1818
1819
1820
1821
1822
1823
1824
1825
1826
1827
2090
2086
2087
2088
2089
2093
2092
2091
2094
2095
1828
1829
1830
1831
1832
1833
1834
1835
1836
1837
1838
1839
1840
1841
1842
1843
1844
1845
1846
1847
1848
1849
1804
1803
1802
161
168
248
247
246
245
290
337
336
379
423
422
421
464
463
513
559
612
705
806
2108
809
764
722
665
619
566
521
473
474
431
432
389
390
391
392
393
350
351
352
353
354
355
305
1737
1736
1735
1734
1733
1732
1731
1730
1729
1728
1727
1726
1725
1724
1723
1722
1721
1720
1719
1718
1717
1716
1715
1714
1713
1712
1711
1710
1709
1708
1707
1706
1705
1704
1703
1702
1701
1700
1699
1698
1697
1696
1695
1694
1693
1692
1691
1690
1689
1688
1687
1686
1685
1684
1683
1682
1681
1680
1679
1678
356
400
399
398
397
396
395
394
441
440
439
438
437
436
435
434
433
476
475
523
522
567
620
666
723
765
810
2111
5
704
658
611
558
512
462
419
420
377
378
335
288
289
243
244
174
173
172
171
170
158
159
115
71
1857
1856
1855
1865
1866
1867
1868
1869
1870
1871
1872
1873
1874
1875
1876
1877
1878
1879
1880
1881
1882
1883
1884
1885
1886
1887
1888
1889
1890
1891
1892
1893
1894
1895
1896
1897
1898
1899
1900
1901
1902
1903
1904
1905
1906
1907
1908
1909
1864
1863
1862
1861
1860
1859
1858
70
114
113
112
157
156
155
154
153
175
176
177
242
241
287
334
333
376
375
374
373
418
461
511
557
610
657
716
760
2112
496
449
358
315
312
308
264
217
210
203
124
78
33
34
843
844
845
846
847
848
849
850
851
852
853
900
901
955
956
957
958
1005
1006
1007
1064
1065
1066
1067
1068
1069
1070
1071
1072
1073
1074
1075
1076
1077
1122
1180
1181
1230
1231
1232
1233
1234
1235
1316
1309
1308
1307
1306
1305
1304
1303
1302
1301
1300
1299
1298
1297
1296
1295
1294
1293
1292
1291
1290
1289
1288
1287
1286
1285
1284
1283
1282
1281
1280
1279
1278
1277
1276
1275
1274
1310
1273
1272
1271
1270
1269
1268
1245
1208
1209
1210
1162
1161
1160
1159
1158
1157
1156
1155
1154
1153
1152
1151
1047
1046
1045
1044
1034
988
941
932
886
839
838
23
30
75
121
206
212
215
259
262
306
307
310
311
357
401
14
2114
8
713
656
609
556
510
460
417
372
329
330
331
332
284
285
286
240
179
178
150
151
152
108
109
110
111
67
68
69
879
1917
1916
1915
1914
1913
1912
1911
1910
1997
1998
1999
2000
2001
2002
2003
2004
2005
2006
2008
2009
2010
2011
2012
2013
2014
2015
2016
2017
1996
1995
1994
1993
1992
1991
1990
1989
1988
1987
1986
1985
1984
1983
1982
1977
981
980
979
978
874
873
62
61
60
59
103
149
148
180
239
238
237
283
282
281
328
371
416
459
509
555
608
655
709
4
2105
7
10
651
605
596
593
451
407
405
402
360
317
266
219
220
221
201
202
125
126
127
128
81
80
79
35
36
37
38
39
40
41
42
43
44
45
854
855
902
903
904
959
960
961
1008
1009
1010
1011
1012
1013
1014
1015
1016
969
968
967
966
965
964
963
962
908
907
906
905
858
857
856
47
46
91
90
89
88
87
86
85
84
83
82
129
130
131
132
133
134
135
192
193
194
195
196
197
198
199
200
222
269
268
267
318
361
403
404
408
452
494
503
599
652
700
701
2115
12
18
73
72
27
25
21
829
830
836
880
883
927
930
936
938
982
985
1029
1032
1035
1038
1039
1130
1132
1133
1137
1138
1142
1143
1145
1193
1194
1146
1147
1195
1196
1197
1148
1149
1150
1198
1199
1200
1201
1202
1239
1238
1203
1204
1237
1236
1205
1206
1207
1244
1267
1266
1315
1314
1313
1312
1265
1264
1263
1262
1261
1260
1246
1247
1259
1258
1257
1248
1249
1250
1251
1252
1253
1311
1240
1192
1191
1241
1242
1254
1255
1256
1243
1190
1189
1188
1144
1141
1140
1139
1134
1131
1086
1085
1040
1041
1037
1036
1031
1030
984
983
937
935
934
933
929
928
882
881
835
831
828
22
826
832
833
834
827
823
824
825
26
28
17
16
2109
816
817
818
819
804
820
821
822
783
784
785
786
787
788
789
790
791
792
793
794
795
796
797
1317
798
799
800
801
802
803
1318
1319
1320
1321
1322
1323
1324
1325
1326
1327
1328
1329
1330
1331
1332
1333
1334
1335
1336
1337
1338
1339
1340
1341
1342
1343
1344
1345
1346
1347
1348
1349
1350
1351
1352
1353
1354
1355
1356
1357
1358
1359
1360
1361
1362
1363
1364
1365
1366
1367
1368
1369
1370
1371
1372
1373
1374
1375
1376
1377
1378
1437
1436
1435
1434
1433
1432
1431
1430
1429
1428
1427
1426
1425
1424
1423
1422
1421
1420
1419
1418
1417
1416
1415
1414
1413
1412
1411
1410
1409
1408
1467
1466
1465
1464
1463
1462
1461
1460
1459
1458
1457
1456
1455
1454
1453
1452
1451
1450
1449
1448
1447
1446
1445
1444
1443
1442
1441
1440
1439
1438
697
696
695
694
693
692
691
690
689
688
687
686
685
684
683
682
681
680
679
678
677
676
675
674
673
672
729
771
770
813
2120
768
726
669
670
624
572
573
574
575
576
577
578
579
580
581
582
583
584
585
586
587
588
589
590
591
592
1498
1499
1500
1501
1502
1503
1504
1505
1506
1507
1508
1509
1510
1511
1512
1513
1514
1515
1516
1517
1518
1519
1520
1521
1522
1523
1524
1525
1526
1527
2062
2061
2060
2059
2077
2074
2075
2076
2079
2080
2083
2084
2085
2082
2081
2078
2055
2056
2057
2058
1528
1529
1530
1531
1532
1533
1534
1535
1536
1537
1538
1539
1540
1541
1542
1543
1544
1545
1546
1547
1548
1549
1550
1551
1552
1553
1554
1555
1556
1557
545
544
543
542
541
540
539
538
537
536
535
534
533
532
531
530
529
528
527
526
571
623
622
668
725
767
811
2117
807
719
469
427
249
169
160
116
1798
1799
1854
1956
1955
1954
1953
2007
2101
2102
2100
1950
1951
1952
1941
1940
1939
1853
1800
162
167
250
295
341
383
426
517
563
615
661
708
761
2121
707
699
653
602
550
504
497
493
409
362
363
319
320
270
223
224
225
226
227
228
229
230
191
136
137
138
92
93
48
49
50
51
859
860
861
862
863
909
910
911
912
913
914
970
971
1017
1018
1019
1020
1021
1022
1023
1079
1078
1123
1124
1125
1126
1127
1128
1187
1186
1185
1184
1183
1182
1229
1228
1227
1226
1225
1224
1223
1222
1221
1220
1219
1218
1217
1216
1215
1214
1213
1212
1211
1163
1104
1103
1102
1101
1100
1099
1098
1097
1096
1095
1094
1093
1092
1091
1090
1089
1136
1135
1088
1087
1042
1043
1033
987
986
939
940
931
885
884
837
29
74
209
213
214
260
261
19
15
13
2116
814
772
730
731
732
733
734
735
736
737
738
486
487
488
489
490
491
492
1558
1559
1560
1561
1562
1563
1564
1565
1566
1567
1568
1569
1570
1571
1572
1573
1574
1575
1576
1577
1578
1579
1580
1581
1582
1583
1584
1585
1586
1587
1588
1589
1590
1591
1592
1593
1594
1595
1596
1597
1598
1599
1600
1601
1602
1603
1604
1605
1606
1607
1608
1609
1610
1611
1612
1613
1614
1615
1616
1617
1619
1620
1621
1622
1623
1624
1625
1626
1627
1628
1629
1630
1631
1632
1633
1634
1635
1636
1637
1638
1639
1640
1641
1642
1643
1644
1645
1646
1647
1648
1649
1650
1651
1652
1653
1654
1655
1656
1657
1658
1659
1660
1661
1662
1663
1664
1665
1666
1667
1668
1669
1670
1671
1672
1673
1674
1675
1676
1677
1618
448
447
446
445
444
443
442
485
484
483
482
481
480
479
478
477
525
524
570
569
568
621
667
724
766
2107
11
606
549
546
502
499
450
406
359
316
313
309
265
218
211
208
204
123
120
117
77
32
841
842
890
891
892
893
894
895
896
897
898
899
954
1001
1002
1003
1004
1061
1062
1063
1108
1109
1110
1111
1112
1113
1114
1115
1116
1117
1118
1119
1120
1121
1179
1178
1177
1176
1175
1174
1173
1172
1171
1170
1169
1168
1167
1166
1165
1164
1107
1106
1105
1060
1059
1058
1057
1056
1055
1054
1053
1052
1051
1050
1049
1048
944
943
942
989
990
991
992
993
994
995
996
997
998
999
1000
953
952
951
950
949
948
947
946
945
889
888
887
840
20
24
31
76
118
119
122
205
207
216
263
314
495
500
501
547
548
594
595
600
601
2106
721
664
344
298
1948
2103
1944
1850
296
428
564
616
762
2104
3
6
714
703
607
603
598
553
507
457
414
369
326
278
232
187
141
52
53
54
864
865
866
867
915
972
973
974
975
976
1024
1080
1081
1082
1083
1084
1129
2037
2036
2035
2034
2038
2039
2040
2041
2042
2043
2044
2045
2046
2047
2048
2049
2050
2051
2052
2053
2054
2018
2019
2020
2021
2022
2023
2024
2025
2026
2027
2028
2029
2030
2031
2032
2033
1981
1980
1979
1978
1028
1027
1026
1025
977
872
871
870
869
58
102
101
100
146
145
144
143
142
186
233
279
327
370
415
458
508
554
604
706
715
2113
9
702
654
650
551
505
498
453
410
411
364
365
321
322
323
271
272
273
274
275
276
277
231
190
189
188
139
140
94
95
96
97
98
99
55
56
57
868
916
917
918
919
920
921
922
923
924
925
1918
1976
1975
1974
1973
1972
1971
1970
1969
1968
1967
1966
1965
1964
1963
1962
1961
1960
1959
1958
1957
1938
1937
1936
1935
1934
1933
1932
1931
1930
1929
1928
1927
1926
1925
1924
1923
1922
1921
1920
1919
926
878
877
876
875
66
65
64
63
107
106
105
104
147
181
182
183
184
185
236
235
234
280
325
324
368
367
366
413
412
456
455
454
506
552
597
698
710
2118
662
518
470
384
342
251
166
163
1801
1852
1851
1942
1943
1949
2096
2097
2099
2098
1947
1946
1945
1805
1797
165
252
297
343
385
429
471
519
617
663
720
808
2119
763
618
565
520
472
430
386
387
388
345
346
347
348
349
301
302
303
304
258
1739
1740
1741
1742
1743
1744
1745
1746
1747
1748
1749
1750
1751
1752
1753
1754
1755
1756
1757
1758
1759
1760
1761
1762
1763
1764
1765
1766
1767
1768
1769
1770
1771
1772
1773
1774
1775
1776
1777
1778
1779
1780
1781
1782
1783
1784
1785
1786
1787
1788
1789
1790
1791
1792
1793
1794
1795
1738
257
256
255
253
294
293
292
291
338
381
380
424
467
466
465
515
514
560
613
659
711
717
2110
812
805
769
727
728
671
625
626
627
628
629
630
631
632
633
634
635
636
637
638
639
640
641
642
643
644
645
646
647
648
649
1497
1496
1495
1494
1493
1492
1491
1490
1489
1488
1487
1486
1485
1484
1483
1482
1481
1480
1479
1478
1477
1476
1475
1474
1473
1472
1471
1470
1469
1468
2063
2073
2066
2065
2064
2069
2070
2071
2072
2068
2067
1407
1406
1405
1404
1403
1402
1401
1400
1399
1398
1397
1396
1395
1394
1393
1392
1391
1390
1389
1388
1387
1386
1385
1384
1383
1382
1381
1380
1379
759
758
757
756
755
754
753
752
751
750
749
748
747
746
745
744
743
742
741
740
739
782
781
780
779
778
777
776
775
774
773
815
-1
EOF
